168
1000
223
30
43
405
75
479
161
45
122
166
102
70
90
87
348
251
22
487
166
633
561
981
702
394
948
196
529
652
43
386
812
164
90
297
545
19
182
633
805
521
170
26
454
618
10
896
680
195
24
502
418
749
251
730
49
749
148
417
327
312
191
836
254
147
513
385
899
447
367
978
490
524
484
586
74
168
815
721
24
81
142
192
605
710
888
573
941
2
259
316
13
458
341
534
195
693
518
181
542
581
236
54
20
427
651
819
104
273
91
168
834
466
677
196
978
30
229
279
227
278
52
101
439
22
323
913
723
129
23
185
103
476
149
99
164
285
771
303
117
59
32
75
453
361
334
741
53
467
112
609
316
1
947
56
123
270
150
102
44
195
392
186
277
749
172
926
172
354
